p cnf 30 30
-11 5 -29 0
-13 -7 -6 0
8 7 -22 0
17 -25 27 0
-13 -25 2 0
22 -15 -4 0
28 -26 -4 0
18 5 -14 0
17 -4 -26 0
-6 3 5 0
-11 -27 17 0
-22 21 6 0
9 -26 -10 0
14 17 -7 0
27 -8 -19 0
13 28 2 0
6 -14 -19 0
-22 19 -2 0
-16 -4 -13 0
2 -1 21 0
-30 17 -20 0
-19 -28 18 0
-20 -21 -1 0
-1 -5 4 0
-16 23 -15 0
23 21 5 0
2 27 21 0
-23 -9 10 0
-21 -17 8 0
23 4 18 0
